
Gurobi 9.5.0 (linux64) logging started Mon May 23 20:39:38 2022

Set parameter LogFile to value "../results/max3cut_numv90/max3cut_numv90_n90p05c9_C-RP-MILO_log.txt"
Set parameter LazyConstraints to value 1
Gurobi Optimizer version 9.5.0 build v9.5.0rc5 (linux64)
Thread count: 20 physical cores, 40 logical processors, using up to 10 threads
Optimize a model with 27065 rows, 2148 columns and 81718 nonzeros
Model fingerprint: 0xf85b8486
Variable types: 0 continuous, 2148 integer (2148 binary)
Coefficient statistics:
  Matrix range     [1e+00, 1e+00]
  Objective range  [1e+00, 1e+00]
  Bounds range     [1e+00, 1e+00]
  RHS range        [1e+00, 9e+01]
Presolve removed 18133 rows and 0 columns
Presolve time: 0.06s
Presolved: 8932 rows, 2148 columns, 27327 nonzeros
Variable types: 0 continuous, 2148 integer (2148 binary)

Root relaxation: objective 1.120000e+02, 703 iterations, 0.03 seconds (0.02 work units)

    Nodes    |    Current Node    |     Objective Bounds      |     Work
 Expl Unexpl |  Obj  Depth IntInf | Incumbent    BestBd   Gap | It/Node Time

     0     0  112.00000    0    9          -  112.00000      -     -    0s
     0     0  112.00000    0  417          -  112.00000      -     -    0s
     0     0  112.00000    0  182          -  112.00000      -     -    1s
     0     0  112.00000    0   99          -  112.00000      -     -    2s
     0     0  112.00000    0   90          -  112.00000      -     -    3s
     0     0  112.00000    0   89          -  112.00000      -     -    4s
     0     2  112.00000    0   89          -  112.00000      -     -    4s
     3     8  112.00000    2   51          -  112.00000      -  1092    6s
   136   232  112.00000   11  209          -  112.00000      -   505   10s
   483  1262  112.00000   18  347          -  112.00000      -   393   16s
  1841  1970  112.00000   64   43          -  112.00000      -   267   21s
  2768  2381  112.00000   73   89          -  112.00000      -   272   25s
  2772  2384  112.00000   26  483          -  112.00000      -   271   31s
  2774  2385  112.00000   54   13          -  112.00000      -   271   36s
  2778  2388  112.00000   77   58          -  112.00000      -   271   40s
  2782  2390  112.00000   73  118          -  112.00000      -   271   46s
  2784  2392  112.00000   41  435          -  112.00000      -   270   50s
  2791  2399  112.00000   14   25          -  112.00000      -   297   60s
  2793  2403  112.00000   15  404          -  112.00000      -   298   72s
  2797  2409  112.00000   16  409          -  112.00000      -   299   87s
  2835  2437  112.00000   19   30          -  112.00000      -   302   90s
  2918  2601  112.00000   24  391          -  112.00000      -   309   96s
  3056  2781  112.00000   27   17          -  112.00000      -   318  101s
  3310  3123  112.00000   35   49          -  112.00000      -   336  110s
  3779  4002  112.00000   59   13          -  112.00000      -   354  120s
  5118  4279  112.00000   67  390          -  112.00000      -   331  127s
  6149  4510  112.00000   47    -          -  112.00000      -   321  133s
  6850  4642  112.00000  104    4          -  112.00000      -   324  140s
  7417  4854  112.00000   61  421          -  112.00000      -   319  147s
  7916  5333  112.00000   76  366          -  112.00000      -   322  154s
  8738  5620  112.00000   66  439          -  112.00000      -   322  161s
  9470  5939  112.00000   61  424          -  112.00000      -   325  169s
 10237  6456  112.00000   85  303          -  112.00000      -   323  176s
 11193  6947  112.00000  101    -          -  112.00000      -   319  186s
 11785  7544  112.00000  101    -          -  112.00000      -   319  194s
 12574  8010  112.00000   77  431          -  112.00000      -   321  202s
 13165  8708  112.00000   93    4          -  112.00000      -   320  211s
 14158  9448  112.00000   89  346          -  112.00000      -   318  220s
 15169 10082  112.00000   70  438          -  112.00000      -   314  231s
 15987 10795  112.00000   91  285          -  112.00000      -   310  240s
 16946 11296  112.00000   89    -          -  112.00000      -   310  252s
 17549 12006  112.00000   89    -          -  112.00000      -   312  263s
 18610 12835  112.00000   89  404          -  112.00000      -   312  275s
 19769 13609  112.00000   56    -          -  112.00000      -   311  289s
 20829 14490  112.00000   90  304          -  112.00000      -   310  302s
 22021 15251  112.00000   91  261          -  112.00000      -   309  315s
 23086 16135  112.00000   94  235          -  112.00000      -   306  332s
 24449 17059  111.96552  100  390          -  112.00000      -   300  346s
 25768 18083  112.00000   77  395          -  112.00000      -   298  360s
 27175 18947  112.00000  107    -          -  112.00000      -   296  375s
 28293 19790  111.00000   97    4          -  112.00000      -   296  391s
 29469 20582  112.00000   70    -          -  112.00000      -   295  407s
 30461 21511  112.00000   70  402          -  112.00000      -   295  425s
 31885 22165  111.00000   71  436          -  112.00000      -   293  442s
 32784 22920  112.00000   67    -          -  112.00000      -   293  458s
 33958 23549  112.00000   67   12          -  112.00000      -   292  473s
 34908 24205  112.00000   69   10          -  112.00000      -   290  493s
 35849 24891  112.00000   70  439          -  112.00000      -   289  508s
 36834 25527  112.00000   74    -          -  112.00000      -   289  525s

Cutting planes:
  Gomory: 4
  Flow cover: 6
  Zero half: 6
  RLT: 25
  BQP: 11
  Lazy constraints: 5094

Explored 37720 nodes (10955529 simplex iterations) in 525.65 seconds (1579.64 work units)
Thread count was 10 (of 40 available processors)

Solution count 0

Solve interrupted
Best objective -, best bound 1.120000000000e+02, gap -

User-callback calls 151906, time in user-callback 12.90 sec
